solution status: time limit reached
objective value:                    -1.50000000000182
x99                                                 1 	(obj:0)
x15                                                 1 	(obj:0)
x16                                                 1 	(obj:0)
x19                                                 1 	(obj:0)
x20                                                 1 	(obj:0)
x21                                                 1 	(obj:0)
x22                                                 1 	(obj:0)
x23                                                 1 	(obj:0)
x26                                                 1 	(obj:0)
x30                                                 1 	(obj:0)
x33                                                 1 	(obj:0)
x36                                                 1 	(obj:0)
x37                                                 1 	(obj:0)
x39                                                 1 	(obj:0)
x40                                                 1 	(obj:0)
x45                                                 1 	(obj:0)
x50                                                 1 	(obj:0)
x51                                                 1 	(obj:0)
x52                                                 1 	(obj:0)
x53                                                 1 	(obj:0)
x55                                                 1 	(obj:0)
x56                                                 1 	(obj:0)
x57                                                 1 	(obj:0)
x58                                                 1 	(obj:0)
x62                                                 1 	(obj:0)
x64                                                 1 	(obj:0)
x65                                 0.999999999996362 	(obj:0)
x68                                                 1 	(obj:0)
x71                                                 1 	(obj:0)
x73                                                 1 	(obj:0)
x75                                                 1 	(obj:0)
x78                                                 1 	(obj:0)
x82                                                 1 	(obj:0)
x84                                                 1 	(obj:0)
x85                                                 1 	(obj:0)
x89                                                 1 	(obj:0)
x91                                                 1 	(obj:0)
x94                                                 1 	(obj:0)
x96                                                 1 	(obj:0)
x98                                                 1 	(obj:0)
x4                                   1.50000000000182 	(obj:0)
x5                                                  2 	(obj:0)
x6                                                2.5 	(obj:0)
x7                                   1.99999999999818 	(obj:0)
x8                                                1.5 	(obj:0)
x9                                                1.5 	(obj:0)
x10                                               1.5 	(obj:0)
x11                                                 2 	(obj:0)
x12                                  1.50000000000182 	(obj:-1)
x1                                                  2 	(obj:0)
x2                                                  2 	(obj:0)
x3                                                1.5 	(obj:0)
